LatticeConstant 1.0 Ang
%block LatticeVectors
 8.64000000 0.00000000 0.00000000
 0.00000000 2.49415316 0.00000000
 0.00000000 0.00000000 14.40000000
%endblock LatticeVectors

NumberOfAtoms 8
AtomicCoordinatesFormat Ang
%block AtomicCoordinatesAndAtomicSpecies
 0.00000000 0.00000000 0.00000000 1 # 1: C
 0.72000000 1.24707658 0.00000000 1 # 2: C
 2.16000000 1.24707658 0.00000000 1 # 3: C
 2.88000000 0.00000000 0.00000000 1 # 4: C
 4.32000000 0.00000000 0.00000000 1 # 5: C
 5.04000000 1.24707658 0.00000000 1 # 6: C
 6.48000000 1.24707658 0.00000000 1 # 7: C
 7.20000000 0.00000000 0.00000000 1 # 8: C
%endblock AtomicCoordinatesAndAtomicSpecies

NumberOfSpecies 1
%block ChemicalSpeciesLabel
 1 6 C
%endblock ChemicalSpeciesLabel
