LatticeConstant 1.0 Ang
%block LatticeVectors
 4.32000000 0.00000000 0.00000000
 0.00000000 2.49415316 0.00000000
 0.00000000 0.00000000 14.40000000
%endblock LatticeVectors

NumberOfAtoms 4
AtomicCoordinatesFormat Ang
%block AtomicCoordinatesAndAtomicSpecies
 0.00000000 0.00000000 0.00000000 1 # 1: C
 0.72000000 1.24707658 0.00000000 1 # 2: C
 2.16000000 1.24707658 0.00000000 1 # 3: C
 2.88000000 0.00000000 0.00000000 1 # 4: C
%endblock AtomicCoordinatesAndAtomicSpecies

NumberOfSpecies 1
%block ChemicalSpeciesLabel
 1 6 C
%endblock ChemicalSpeciesLabel
