LatticeConstant 1.0 Ang
%block LatticeVectors
 25.92000000 0.00000000 0.00000000
 0.00000000 2.49415316 0.00000000
 0.00000000 0.00000000 14.40000000
%endblock LatticeVectors

NumberOfAtoms 24
AtomicCoordinatesFormat Ang
%block AtomicCoordinatesAndAtomicSpecies
  0.00000000  0.00000000  0.00000000 1 #  1: C
  0.72000000  1.24707658  0.00000000 1 #  2: C
  2.16000000  1.24707658  0.00000000 1 #  3: C
  2.88000000  0.00000000  0.00000000 1 #  4: C
  4.32000000  0.00000000  0.00000000 1 #  5: C
  5.04000000  1.24707658  0.00000000 1 #  6: C
  6.48000000  1.24707658  0.00000000 1 #  7: C
  7.20000000  0.00000000  0.00000000 1 #  8: C
  8.64000000  0.00000000  0.00000000 1 #  9: C
  9.36000000  1.24707658  0.00000000 1 # 10: C
 10.80000000  1.24707658  0.00000000 1 # 11: C
 11.52000000  0.00000000  0.00000000 1 # 12: C
 12.96000000  0.00000000  0.00000000 1 # 13: C
 13.68000000  1.24707658  0.00000000 1 # 14: C
 15.12000000  1.24707658  0.00000000 1 # 15: C
 15.84000000  0.00000000  0.00000000 1 # 16: C
 17.28000000  0.00000000  0.00000000 1 # 17: C
 18.00000000  1.24707658  0.00000000 1 # 18: C
 19.44000000  1.24707658  0.00000000 1 # 19: C
 20.16000000  0.00000000  0.00000000 1 # 20: C
 21.60000000  0.00000000  0.00000000 1 # 21: C
 22.32000000  1.24707658  0.00000000 1 # 22: C
 23.76000000  1.24707658  0.00000000 1 # 23: C
 24.48000000  0.00000000  0.00000000 1 # 24: C
%endblock AtomicCoordinatesAndAtomicSpecies

NumberOfSpecies 1
%block ChemicalSpeciesLabel
 1 6 C
%endblock ChemicalSpeciesLabel
